7821
37, 40, 39, 36, 35, 34, 46, 44, 1, 22, 31, 18, 3, 17, 21, 42, 7, 2, 30, 29, 16, 50, 20, 23, 49, 32, 45, 19, 41, 8, 9, 10, 43, 33, 51, 11, 52, 14, 13, 47, 26, 27, 28, 12, 25, 4, 6, 15, 5, 24, 48, 38
